(set-info :Origin "This instance was generated by: BanditFuzz-- an RL fuzzer for SMT solvers" )
(set-info :Author "Joe Scott, Fed Mora, Vijay Ganesh" )
(set-info :Contact "Joe Scott, joseph.scott@uwaterloo.ca")
(set-logic QF_BV)
(declare-const bool_0 Bool)
(declare-const bool_1 Bool)
(declare-const bool_2 Bool)
(declare-const bool_3 Bool)
(declare-const bool_4 Bool)
(declare-const bv_0 (_ BitVec 32))
(declare-const bv_1 (_ BitVec 32))
(declare-const bv_2 (_ BitVec 32))
(declare-const bv_3 (_ BitVec 32))
(declare-const bv_4 (_ BitVec 32))
(assert (bvsgt (bvnor (bvor bv_3 bv_3) (bvsub bv_0 bv_1)) (bvsdiv (bvmul bv_0 #xa86bf18d ) (bvsdiv bv_1 #xf4aa2731 ))))
(assert (bvuge (bvsub (bvsrem #x52fefe90  bv_1) (bvor #x82127bc6  #x9f07ae6e )) (bvshl (bvudiv #xa47cacf1  #x54856df5 ) (bvxnor bv_1 #xd913b2d2 ))))
(assert (bvsle (bvxor (bvsdiv #xf218a85a  bv_1) (bvlshr #x3a4efe29  bv_3)) (bvsrem (bvadd bv_1 bv_0) (bvor bv_3 #x00676013 ))))
(assert (bvuge (bvxnor (bvnor bv_3 bv_0) (bvadd #xdc55efed  bv_1)) (bvlshr (bvsrem bv_0 bv_3) (bvand #x8c4c5aa5  #xd8541970 ))))
(assert (bvult (bvor (bvudiv #x73b1b2d3  bv_3) (bvadd #xc0d4f061  #x0be10497 )) (bvshl (bvxnor bv_0 #xa6ca4c57 ) (bvsub #xc21c1b9c  #xd33c86a1 ))))
(check-sat)
(exit)
